c nombre: 28
c densidad: 0.3
p edges 45 298
e 1 3
e 1 4
e 1 5
e 1 10
e 1 11
e 1 13
e 1 16
e 1 18
e 1 22
e 1 23
e 1 30
e 1 32
e 1 34
e 1 38
e 1 40
e 1 42
e 2 3
e 2 8
e 2 9
e 2 10
e 2 15
e 2 16
e 2 18
e 2 19
e 2 22
e 2 23
e 2 24
e 2 27
e 2 28
e 2 32
e 2 34
e 2 44
e 3 5
e 3 6
e 3 8
e 3 9
e 3 10
e 3 11
e 3 12
e 3 13
e 3 14
e 3 18
e 3 25
e 3 26
e 3 27
e 3 34
e 3 39
e 3 44
e 4 7
e 4 8
e 4 9
e 4 18
e 4 23
e 4 26
e 4 27
e 4 29
e 4 35
e 4 37
e 4 38
e 4 40
e 4 42
e 5 7
e 5 8
e 5 13
e 5 15
e 5 16
e 5 18
e 5 20
e 5 22
e 5 26
e 5 27
e 5 29
e 5 33
e 5 35
e 5 37
e 5 39
e 5 43
e 6 7
e 6 9
e 6 15
e 6 18
e 6 20
e 6 22
e 6 23
e 6 28
e 6 29
e 6 30
e 6 31
e 6 36
e 6 38
e 6 43
e 7 8
e 7 10
e 7 17
e 7 21
e 7 23
e 7 34
e 7 35
e 7 41
e 7 43
e 7 45
e 8 20
e 8 22
e 8 27
e 8 28
e 8 31
e 8 37
e 8 39
e 8 45
e 9 10
e 9 14
e 9 19
e 9 21
e 9 22
e 9 25
e 9 30
e 9 35
e 10 14
e 10 18
e 10 20
e 10 21
e 10 25
e 10 34
e 10 35
e 10 43
e 10 44
e 11 13
e 11 14
e 11 17
e 11 18
e 11 19
e 11 25
e 11 31
e 11 34
e 12 20
e 12 26
e 12 28
e 12 29
e 12 30
e 12 32
e 12 33
e 12 37
e 12 38
e 12 45
e 13 15
e 13 21
e 13 22
e 13 23
e 13 33
e 13 36
e 14 18
e 14 20
e 14 24
e 14 25
e 14 26
e 14 27
e 14 34
e 14 36
e 14 43
e 15 16
e 15 18
e 15 20
e 15 25
e 15 26
e 15 28
e 15 39
e 15 40
e 15 41
e 15 42
e 16 17
e 16 20
e 16 26
e 16 29
e 16 36
e 16 38
e 16 40
e 16 41
e 16 43
e 17 19
e 17 21
e 17 25
e 17 26
e 17 31
e 17 33
e 17 38
e 17 39
e 17 40
e 18 21
e 18 23
e 18 29
e 18 31
e 18 33
e 18 39
e 18 44
e 19 23
e 19 24
e 19 26
e 19 29
e 19 35
e 19 37
e 19 38
e 19 39
e 19 40
e 19 42
e 19 44
e 20 26
e 20 27
e 20 31
e 20 37
e 20 38
e 20 39
e 20 41
e 21 24
e 21 29
e 21 36
e 21 41
e 22 33
e 22 35
e 22 39
e 22 40
e 23 27
e 23 28
e 23 35
e 23 39
e 23 40
e 23 42
e 23 44
e 24 25
e 24 26
e 24 27
e 24 28
e 24 33
e 24 36
e 25 28
e 25 31
e 25 34
e 25 37
e 26 29
e 26 31
e 26 33
e 26 37
e 26 38
e 26 39
e 26 44
e 26 45
e 27 33
e 27 35
e 27 36
e 28 29
e 28 31
e 28 34
e 28 38
e 28 44
e 29 31
e 29 34
e 29 35
e 29 43
e 30 31
e 30 37
e 30 41
e 30 44
e 31 33
e 31 36
e 31 38
e 31 43
e 31 44
e 32 40
e 32 43
e 33 34
e 33 37
e 33 38
e 34 36
e 34 37
e 34 42
e 34 43
e 35 36
e 35 38
e 35 39
e 35 42
e 35 43
e 36 39
e 36 41
e 37 38
e 37 39
e 37 42
e 37 43
e 38 40
e 38 41
e 38 42
e 38 43
e 38 44
e 40 41
e 40 43
e 41 42
e 41 43
e 42 45
e 43 44
e 44 45
